6,0	0,0	13,7	7,2	0,0	0,0	0,0	0,0	0,0	12,0
14,5	6,0	0,0	11,3	5,8	0,0	0,0	10,5	0,0	0,0
0,0	0,0	15,0	0,0	19,2	11,2	0,0	0,0	8,3	0,0
6,4	0,0	16,3	0,0	0,0	0,0	15,1	0,0	0,0	0,0
0,0	8,9	0,0	18,6	12,9	0,0	0,0	10,1	0,0	0,0
0,0	10,4	16,6	0,0	13,2	10,7	0,0	0,0	6,8	0,0
0,0	7,1	0,0	19,1	0,0	0,0	14,3	0,0	0,0	8,7
20,0	0,0	6,8	0,0	0,0	0,0	0,0	0,0	0,0	16,1
0,0	6,2	0,0	6,0	16,4	0,0	0,0	13,4	0,0	0,0
0,0	0,0	5,2	0,0	0,0	11,3	8,8	0,0	0,0	7,0
0,0	6,8	0,0	0,0	9,5	0,0	12,0	0,0	12,1	13,5
19,6	0,0	9,4	0,0	14,4	0,0	16,5	18,5	5,3	0,0
0,0	8,2	0,0	0,0	0,0	16,5	0,0	16,0	11,0	6,0
6,7	8,2	17,5	0,0	0,0	16,5	0,0	9,5	15,8	0,0
7,8	0,0	19,9	0,0	16,6	9,5	19,9	17,8	0,0	0,0
0,0	8,9	0,0	12,2	0,0	9,5	0,0	19,4	0,0	0,0
14,6	0,0	16,5	8,1	7,1	0,0	0,0	16,4	0,0	0,0
0,0	0,0	19,1	0,0	0,0	8,6	8,3	0,0	19,1	14,1
6,0	0,0	0,0	12,3	5,9	12,3	9,9	7,4	0,0	14,5
0,0	9,9	0,0	12,4	0,0	0,0	8,8	0,0	8,2	14,9
									
2,6	2,8	3,2	4,0	2,9	4,8	2,7	4,3	4,2	4,0
